proyfinal/src/viki/013/experimentInOfficeAgust.take6.output/166fa5fa-0aa9-40f6-b214-b8b5655d5076.als.dat
{'cnf.clauses': '118081',
 'cnf.totvars': '69608',
 'conflict literals': '17',
 'conflicts': '12',
 'decisions': '1447',
 'memused.mb': '15.11',
 'outcome': 'UNSAT',
 'propagations': '37426',
 'restarts': '1',
 'solver.msecs': 30,
 'task.msecs': 73}
