proyfinal/src/viki/013/experimentInOfficeAgust.take6.output/166fa5fa-0aa9-40f6-b214-b8b5655d5076.als.out
Reading from standard input... Use '--help' for help.
============================[ Problem Statistics ]=============================
|                                                                             |
|  Number of variables:         69608                                         |
|  Number of clauses:          118081                                         |
|  Parse time:                   0.02 s                                       |
|                                                                             |
============================[ Search Statistics ]==============================
| Conflicts |          ORIGINAL         |          LEARNT          | Progress |
|           |    Vars  Clauses Literals |    Limit  Clauses Lit/Cl |          |
===============================================================================
===============================================================================
restarts              : 1
conflicts             : 12             (392 /sec)
decisions             : 1447           (0.00 % random) (47258 /sec)
propagations          : 37426          (1222313 /sec)
conflict literals     : 17             (10.53 % deleted)
Memory used           : 15.11 MB
CPU time              : 0.030619 s

UNSATISFIABLE
